datasets/2-dimensional/CL_04_25_08.vbp
2
1000 1000 
25
94 72 30
112 151 72
98 139 4
134 70 88
55 176 54
194 143 64
183 151 90
157 136 26
149 80 94
91 167 28
118 180 72
112 102 49
158 116 54
87 157 19
85 57 28
83 149 61
66 68 84
66 95 23
167 116 67
53 62 53
56 68 54
110 166 16
198 141 9
54 124 54
61 151 77
