datasets/2-dimensional/CL_04_25_08.txt
1000 1000 
0 30 94 72 
1 72 112 151 
2 4 98 139 
3 88 134 70 
4 54 55 176 
5 64 194 143 
6 90 183 151 
7 26 157 136 
8 94 149 80 
9 28 91 167 
10 72 118 180 
11 49 112 102 
12 54 158 116 
13 19 87 157 
14 28 85 57 
15 61 83 149 
16 84 66 68 
17 23 66 95 
18 67 167 116 
19 53 53 62 
20 54 56 68 
21 16 110 166 
22 9 198 141 
23 54 54 124 
24 77 61 151 
